unknown
(model
; cardinality of BoundSet is 1
(declare-sort BoundSet 0)
; rep: @uc_BoundSet_0
(declare-sort UnboundSet 0)
(define-fun IsInThisPicture ((BOUND_VARIABLE_343 BoundSet)) Bool true)
(define-fun IsInSnow ((BOUND_VARIABLE_343 BoundSet)) Bool false)
(define-fun HasSnowballFight ((BOUND_VARIABLE_343 BoundSet)) Bool false)
)
sat
(model
; cardinality of BoundSet is 1
(declare-sort BoundSet 0)
; rep: @uc_BoundSet_0
(declare-sort UnboundSet 0)
(define-fun IsInThisPicture ((BOUND_VARIABLE_368 BoundSet)) Bool true)
(define-fun IsInSnow ((BOUND_VARIABLE_368 BoundSet)) Bool false)
(define-fun HasSnowballFight ((BOUND_VARIABLE_368 BoundSet)) Bool false)
)
